;; produced by z3_gnatprove.drv ;;
(set-info :smt-lib-version 2.5)
(set-info :source |VC generated by SPARK 2014|)
(set-info :category industrial)
(set-info :status unknown)
;;; generated by SMT-LIB2 driver
;;; SMT-LIB2 driver: bit-vectors, common part
;;; SMT-LIB2: integer arithmetic
(declare-sort us_private 0)

(declare-const us_null_ext__ us_private)

(declare-const two_power_size_minus_one Int)

;; "in_range"
(define-fun in_range ((x Int)) Bool
  (and (<= (- 2147483648) x) (<= x 2147483647)))

;; "nth"
(define-fun nth ((param__x (_ BitVec 64)) (param__pos Int)) Bool
  (= (bvand (bvlshr param__x ((_ int2bv 64) param__pos)) #x0000000000000001) #x0000000000000001))

(declare-const x (_ BitVec 64))

(declare-const i Int)

(declare-const attr__ATTRIBUTE_MODULUS (_ BitVec 64))

;; "Assume"
(assert true)

;; "Assume"
(assert (in_range i))

;; "Assume"
(assert (and (<= 0 i) (<= i 63)))

;; Goal "def'vc"
;; File "bitwalker.adb", line 236, characters 0-0
(assert
  (not
  (= (bvlshr x ((_ int2bv 64) i)) (bvadd (bvshl (bvlshr x ((_ int2bv 64) (+ 
  i 1))) ((_ int2bv 64) 1)) (ite (= (nth x i) true)
                              #x0000000000000001
                              #x0000000000000000)))))

(check-sat)
